NAME : in_house_9_22
TYPE : TSP
DIMENSION : 9
EDGE_WEIGHT_TYPE : EXPLICIT
EDGE_WEIGHT_FORMAT : UPPER_ROW
COMMENT : INVERSION_SHIFT=1
EDGE_WEIGHT_SECTION
72
66
12
38
57
40
16
67
71
15
50
31
56
55
67
9
75
65
76
74
23
63
65
32
17
32
53
60
37
27
42
62
25
4
57
30
